al-pu
1.0
       13.110000000       0.0000000000         0.0000000000
       0.0000000000        13.1100000000        0.0000000000
       0.0000000000        0.0000000000         52.620000000
C   H   N  O  Si 
97  34  2  5  72
Selective Dynamics
Cartesian
8.4519	3.8487	3.2158	F	F	F
1.8910	10.4081	3.2182	F	F	F
10.6383	6.0300	3.2523	F	F	F
6.2757	6.0388	3.2527	F	F	F
4.0856	8.2242	3.2564	F	F	F
4.0625	12.5793	3.2571	F	F	F
12.8055	12.5832	3.2603	F	F	F
8.4592	8.2270	3.2635	F	F	F
10.6140	1.6613	3.2662	F	F	F
6.2647	10.4160	3.2790	F	F	F
10.6327	10.4044	3.2839	F	F	F
12.8236	8.2142	3.2841	F	F	F
1.8687	1.6480	3.2939	F	F	F
8.4366	12.5927	3.2945	F	F	F
6.2448	1.6620	3.2949	F	F	F
12.7987	3.8312	3.3084	F	F	F
4.0690	3.8417	3.3186	F	F	F
1.8989	6.0252	3.3226	F	F	F
6.3270	3.8431	5.4437	T	T	T
8.4799	6.0232	5.4456	T	T	T
1.9054	8.2819	5.4523	T	T	T
6.2756	8.2290	5.4572	T	T	T
4.0614	10.4248	5.4684	T	T	T
10.5719	3.8310	5.4794	T	T	T
1.8704	12.5373	5.4844	T	T	T
12.8270	10.4218	5.4927	T	T	T
10.6326	12.5986	5.4954	T	T	T
4.0621	1.5971	5.4958	T	T	T
12.7757	6.0354	5.4961	T	T	T
4.1196	6.0516	5.4985	T	T	T
8.4399	1.6780	5.5007	T	T	T
12.7814	1.6243	5.5019	T	T	T
10.6282	8.2324	5.5066	T	T	T
8.4491	10.4126	5.5226	T	T	T
6.2532	12.5898	5.5297	T	T	T
1.8749	3.8134	5.5342	T	T	T
4.2572	3.7032	7.4566	T	T	T
1.8393	6.1684	7.4752	T	T	T
12.6676	3.8263	7.6037	T	T	T
6.4091	6.0258	7.6043	T	T	T
4.1133	8.2828	7.6311	T	T	T
8.4335	8.2051	7.6466	T	T	T
6.2108	10.3995	7.6522	T	T	T
12.8058	8.2724	7.6531	T	T	T
1.8606	1.4949	7.6542	T	T	T
8.4569	12.6395	7.6698	T	T	T
10.5803	6.0257	7.6798	T	T	T
10.6616	10.4611	7.6832	T	T	T
10.6135	1.6333	7.7187	T	T	T
6.2812	1.6591	7.7259	T	T	T
4.0528	12.5539	7.7340	T	T	T
1.9003	10.4092	7.7353	T	T	T
8.4241	3.8417	7.7408	T	T	T
12.7968	12.5690	7.7576	T	T	T
1.9005	3.8440	8.9502	T	T	T
4.2798	5.8490	9.2414	T	T	T
8.3322	10.5472	9.5738	T	T	T
10.5993	8.2573	9.7000	T	T	T
12.7703	6.0684	9.8195	T	T	T
6.3137	8.1832	9.8338	T	T	T
6.1824	12.6326	9.8479	T	T	T
1.8969	8.1992	9.8521	T	T	T
10.6295	3.8249	9.8528	T	T	T
8.4679	1.5958	9.9162	T	T	T
4.0681	1.6511	9.9350	T	T	T
12.8134	1.6870	9.9631	T	T	T
4.0999	10.3504	9.9856	T	T	T
12.8158	10.3775	9.9917	T	T	T
8.4383	6.0410	10.0160	T	T	T
10.6285	12.5683	10.0324	T	T	T
1.8972	12.5694	10.0438	T	T	T
6.2946	3.7907	10.0767	T	T	T
2.1979	5.3232	12.2537	T	T	T
2.5318	3.8091	12.3246	T	T	T
4.3581	6.3651	12.5919	T	T	T
9.1920	9.1589	12.9363	T	T	T
9.9182	8.0065	13.1184	T	T	T
6.9803	11.2853	13.1495	T	T	T
8.7850	3.6434	13.2463	T	T	T
9.9112	4.4627	13.4152	T	T	T
6.1143	12.4998	13.4729	T	T	T
5.2587	6.9024	13.7133	T	T	T
2.4014	3.2413	13.7642	T	T	T
9.0001	10.0697	13.9655	T	T	T
3.1494	1.9097	14.0181	T	T	T
7.7036	3.6751	14.1822	T	T	T
4.7376	8.2230	14.3038	T	T	T
10.5026	7.6934	14.3466	T	T	T
10.0163	5.3229	14.5027	T	T	T
5.3602	2.8446	14.5227	T	T	T
11.1213	6.3411	14.6139	T	T	T
9.6535	9.8171	15.1807	T	T	T
7.8647	4.4862	15.2781	T	T	T
10.3859	8.6394	15.3788	T	T	T
8.9680	5.2909	15.4552	T	T	T
5.5241	8.7413	15.5128	T	T	T
5.5835	10.4946	17.0514	T	T	T
2.2478	5.6916	11.1349	T	T	T
1.8773	3.2705	11.6939	T	T	T
4.3054	7.1625	11.7316	T	T	T
8.7073	9.3199	11.8776	T	T	T
3.5148	3.6579	11.9522	T	T	T
4.7949	5.5083	12.1752	T	T	T
10.0178	7.2360	12.2369	T	T	T
8.7383	3.0469	12.4101	T	T	T
1.2075	5.5007	12.5891	T	T	T
10.6671	4.4363	12.6809	T	T	T
6.3521	0.2187	12.6837	T	T	T
6.7209	2.3577	12.9764	T	T	T
5.0154	12.1384	13.2938	T	T	T
6.2573	7.0199	13.3662	T	T	T
2.7686	1.1483	13.3798	T	T	T
4.7615	8.9624	13.5469	T	T	T
11.9619	6.1205	13.8218	T	T	T
1.3796	3.1352	13.9953	T	T	T
6.1895	12.9166	14.4333	T	T	T
8.3849	11.9366	14.4879	T	T	T
2.8045	4.0274	14.5358	T	T	T
5.2962	6.0808	14.5596	T	T	T
3.7274	8.1169	14.5952	T	T	T
3.0397	1.5883	15.0210	T	T	T
6.5465	8.8434	15.2843	T	T	T
11.5979	6.2957	15.5510	T	T	T
9.5622	10.4765	15.9965	T	T	T
7.0367	4.5590	16.1043	T	T	T
9.0300	5.9215	16.2894	T	T	T
10.8220	8.4522	16.3201	T	T	T
5.4501	7.9587	16.3889	T	T	T
6.6034	10.6977	16.8931	T	T	T
5.0512	11.5133	17.2795	T	T	T
5.4657	9.8768	17.8965	T	T	T
6.5570	2.8871	13.8697	T	T	T
8.1536	11.2531	13.8750	T	T	T
6.6025	10.4643	12.3584	T	T	T
3.0431	6.1196	13.0852	T	T	T
4.5375	2.0587	13.7117	T	T	T
5.0299	3.3263	15.5106	T	T	T
4.9458	9.9750	15.9015	T	T	T
2.9913	11.4946	2.2974	F	F	F
9.5509	4.9478	2.3080	F	F	F
0.8092	9.2780	2.3299	F	F	F
7.3714	7.1331	2.3329	F	F	F
0.7863	0.5713	2.3384	F	F	F
11.7174	11.4870	2.3406	F	F	F
9.5561	9.3130	2.3413	F	F	F
5.1888	9.3161	2.3425	F	F	F
7.3021	2.7703	2.3499	F	F	F
11.7501	7.1152	2.3500	F	F	F
9.5113	0.5762	2.3500	F	F	F
7.3423	11.5181	2.3546	F	F	F
11.7028	2.7665	2.3555	F	F	F
5.1363	0.5998	2.3617	F	F	F
2.9821	7.1088	2.3755	F	F	F
5.1583	4.9283	2.3838	F	F	F
2.9638	2.7601	2.4029	F	F	F
0.7982	4.9304	2.4163	F	F	F
2.9899	9.3485	4.4405	T	T	T
7.3920	4.9419	4.4418	T	T	T
0.7989	11.4747	4.4510	T	T	T
9.5002	2.7572	4.4587	T	T	T
5.1876	7.1313	4.4653	T	T	T
11.7069	0.5621	4.4678	T	T	T
9.5678	7.1350	4.4797	T	T	T
7.3759	9.3313	4.4920	T	T	T
2.9609	0.5310	4.4968	T	T	T
5.1672	11.5181	4.4991	T	T	T
11.7306	9.3167	4.5120	T	T	T
11.6886	4.9308	4.5122	T	T	T
9.5372	11.4972	4.5143	T	T	T
7.3391	0.5752	4.5264	T	T	T
0.7779	2.7313	4.5330	T	T	T
0.7985	7.1295	4.5362	T	T	T
5.1576	2.7397	4.5504	T	T	T
2.9885	4.9278	4.5700	T	T	T
7.4168	7.1314	6.5793	T	T	T
5.1689	9.3451	6.5957	T	T	T
3.0240	7.2246	6.5972	T	T	T
5.2934	4.9484	6.6217	T	T	T
11.6277	2.7113	6.6279	T	T	T
0.7540	0.4750	6.6480	T	T	T
9.5368	0.5929	6.6581	T	T	T
11.7437	11.5213	6.6686	T	T	T
0.8236	9.3430	6.6724	T	T	T
9.4992	4.9209	6.6867	T	T	T
0.7432	4.9150	6.6912	T	T	T
2.9741	11.4878	6.6923	T	T	T
11.6965	7.1365	6.7014	T	T	T
7.3473	2.7631	6.7045	T	T	T
2.9539	2.6509	6.7086	T	T	T
9.5547	9.3336	6.7185	T	T	T
7.3532	11.5060	6.7208	T	T	T
5.1540	0.5626	6.7453	T	T	T
3.0994	4.9567	8.2490	T	T	T
5.3178	7.1937	8.6725	T	T	T
0.6283	2.6142	8.6830	T	T	T
7.3125	9.2872	8.7836	T	T	T
0.7600	7.1751	8.8200	T	T	T
9.5969	11.5934	8.8631	T	T	T
11.6792	4.9432	8.8738	T	T	T
11.7532	9.3722	8.8777	T	T	T
9.4659	7.0894	8.8862	T	T	T
9.5116	2.7291	8.9200	T	T	T
7.3539	0.5578	8.9211	T	T	T
3.0291	9.2987	8.9359	T	T	T
5.1406	11.4532	8.9378	T	T	T
2.9718	0.5269	8.9945	T	T	T
5.2113	2.7461	9.0034	T	T	T
0.8124	11.4837	9.0246	T	T	T
11.6941	0.5694	9.0319	T	T	T
7.3304	4.9347	9.0696	T	T	T
